StudentsNr = 10;
InstructorsNr = 22;
DaysNr = 2;
SlotsPerDay = 60;
AvailabilitySlotsLenght = 20;
RoomNr = 1;
ProgrammNr = 2;
DegreeNr = 1;
RolesNr = 2;
CoursesNr = 6;
InstructorsProgramm = [{2}, {1, 2}, {2}, {1, 2}, {1}, {1}, {1, 2}, {1}, {2}, {2}, {1, 2}, {2}, {2}, {2}, {1}, {1, 2}, {2}, {1}, {2}, {2}, {1, 2}, {1, 2}];
InstructorRolesPerProgramm = [|{8, 15, 18, 22}, {4, 6, 7, 8, 11, 18}|{9, 10, 14, 17, 19, 22}, {1, 3, 4, 7, 9, 10, 11, 12, 13, 17, 20}|];
InstructorsAvailability = [|0, 1, 1, 1, 1, 1, |0, 1, 1, 0, 0, 1, |0, 1, 1, 1, 0, 1, |0, 1, 1, 1, 1, 1, |1, 1, 0, 0, 1, 1, |0, 0, 1, 1, 1, 1, |1, 0, 0, 0, 1, 0, |0, 1, 1, 1, 1, 1, |0, 1, 1, 1, 1, 1, |1, 1, 1, 1, 1, 1, |1, 1, 1, 1, 1, 1, |0, 0, 0, 0, 0, 1, |0, 0, 1, 1, 1, 1, |1, 1, 1, 1, 0, 0, |1, 1, 1, 1, 1, 1, |0, 1, 1, 1, 1, 0, |0, 1, 1, 1, 0, 1, |0, 0, 1, 1, 1, 1, |1, 1, 1, 1, 1, 1, |0, 0, 0, 1, 1, 1, |0, 0, 0, 1, 1, 1, |0, 0, 0, 0, 0, 1|];
StudentsProgramm = [1, 1, 1, 1, 1, 2, 2, 1, 2, 1];
StudentsDegree = [1, 1, 1, 1, 1, 1, 1, 1, 1, 1];
StudentsSupervisorId = [11, 16, 4, 16, 11, 21, 22, 5, 19, 22];
StudentsCourseIds = [{}, {}, {}, {}, {}, {}, {}, {}, {}, {}];
StudentsAvailability = [|1, 1, 1, 1, 1, 1, |1, 1, 1, 1, 1, 1, |0, 0, 0, 0, 1, 1, |1, 1, 0, 0, 0, 0, |1, 1, 1, 1, 1, 1, |0, 0, 0, 0, 1, 1, |1, 1, 1, 1, 1, 1, |1, 1, 1, 1, 1, 1, |0, 0, 0, 0, 0, 0, |0, 1, 1, 1, 1, 1|];
TheoryticalMinCard = [0, 1, 0, 1, 0, 1, 0, 1, 0, 0];
CoursesInstructorIds = [{1, 2, 3, 5, 6, 8, 10, 11, 12, 13, 15, 17, 22}, {3, 4, 5, 8, 9, 10, 12, 13, 14, 17, 18, 19, 21}, {6, 11, 21, 22}, {1, 2, 4, 6, 7, 8, 10, 11, 13, 14, 15, 16, 19, 20, 21, 22}, {4, 6, 7, 8, 11, 15, 17, 22}, {1, 2, 3, 4, 5, 7, 9, 10, 11, 15, 18, 21}];
RolesDemands = [1, 2];
RolesContinuity = [];
ExamLen = [1, 1, 1, 1, 1, 1, 1, 1, 1, 1];
LunchTsMinLen = 1;
LunchStarts = [16..45, 84..103];
SupervisorAvailable = 5;
OptimalLunchLenght = [0, 1];
OptimalStartTs = [0, 0];
OptimalFinishTs = [2, 60];
MinimizeRooms = 100;
RolesSoftContinuity = [|1, 2|3, 2|];
SameDegreeInRoom = 10;
Mergeability = 1;
